%chk=mol1.chk
%MEM=96GB
%nprocshared=12
# opt freq M062X/Def2TZVP scrf=(SMD,solvent=water) nosymm

mol1

0  1
C          -2.39757         0.18499         0.57013
C          -1.61383        -0.18681        -0.69385
C          -0.17048        -0.14572        -0.35185
C           0.53151        -1.23000         0.12442
C           1.88528        -1.14973         0.43347
C           2.49100         0.07018         0.23945
C           1.84077         1.18513        -0.23275
C           0.49668         1.06514        -0.52829
H          -2.24790         1.29006         0.74420
H          -3.45377        -0.08348         0.46219
H          -1.90008        -0.31300         1.43053
H          -1.88497        -1.23114        -0.94874
H          -1.83953         0.52850        -1.51335
H           0.00584        -2.16703         0.25867
H           2.39378        -2.02892         0.80478
H           3.54203         0.13521         0.47862
H           2.37061         2.14129        -0.37135
H          -0.04936         1.93534        -0.90628

